NAME : D493C
TYPE : PDTSP
DIMENSION : 493
EDGE_WEIGHT_TYPE : EUC_2D
NODE_COORD_SECTION
1 0 0
2 1100 1600
3 1400 1500
4 1100 1800
5 1200 1800
6 1200 1900
7 1200 2000
8 1300 2000
9 1200 2000
10 1200 2000
11 1200 2100
12 1400 2200
13 1700 2100
14 1700 2200
15 1800 2300
16 1800 2300
17 1700 2400
18 1700 2400
19 1600 2400
20 1800 2500
21 2300 1800
22 2200 1400
23 2200 1300
24 2200 1300
25 2600 1100
26 2500 1200
27 2300 950
28 2200 1000
29 2200 1100
30 2200 1100
31 2200 1200
32 2000 1100
33 2000 1300
34 1900 1300
35 1900 1400
36 1800 1400
37 1800 1400
38 1800 1400
39 1800 1300
40 1700 1300
41 2000 1600
42 2000 1700
43 2000 1800
44 2000 1800
45 2100 1800
46 2000 1800
47 2000 1900
48 1800 1800
49 1800 1800
50 1800 1900
51 1800 1700
52 1700 1800
53 1900 2200
54 2000 2100
55 2000 2200
56 1900 2200
57 1900 2200
58 2000 2300
59 2000 2300
60 2100 2400
61 1900 2400
62 1900 2500
63 1900 2500
64 2100 2500
65 2200 2100
66 1600 2700
67 1700 2700
68 1800 2700
69 1700 2800
70 1800 2800
71 1900 3100
72 1900 3000
73 1900 3000
74 1900 3000
75 2200 3000
76 2200 2900
77 2200 2900
78 1900 2900
79 2200 2800
80 1900 2800
81 1900 2800
82 2000 2800
83 1900 2700
84 2000 2600
85 2100 2600
86 2100 2600
87 2200 2500
88 2600 3000
89 2600 3000
90 2500 3000
91 2900 3000
92 2900 3000
93 2900 3000
94 3000 3000
95 2800 2800
96 2200 2800
97 2600 2800
98 2600 2800
99 2500 2800
100 2700 2800
101 2600 2700
102 2900 2700
103 3200 2700
104 3100 2700
105 2800 2700
106 2500 2700
107 2600 2600
108 2700 2600
109 3400 2600
110 2900 2600
111 3100 2600
112 2700 2600
113 2700 2500
114 2900 2500
115 2800 2500
116 2300 2500
117 2600 2500
118 3200 2500
119 2700 2500
120 2900 2400
121 2500 2400
122 2400 2400
123 2900 2400
124 3100 2400
125 2600 2400
126 2500 2400
127 2800 2400
128 2300 2400
129 2600 2300
130 2900 2300
131 2800 2300
132 2600 2300
133 2800 2300
134 2900 2300
135 2800 2300
136 2700 2300
137 2800 2300
138 2900 2300
139 2300 2200
140 2900 2200
141 3100 2200
142 2900 2200
143 3400 2200
144 2900 2200
145 2600 2200
146 2700 2200
147 2800 2100
148 2800 2100
149 2400 2100
150 2900 2100
151 3400 2100
152 2600 2100
153 3100 2100
154 2600 2100
155 2500 2100
156 2700 2100
157 3400 2000
158 3400 2000
159 2600 2000
160 2700 2000
161 2500 2000
162 2700 2000
163 2500 2000
164 3100 2000
165 3400 2000
166 2700 2000
167 2700 2000
168 3200 2000
169 3000 1900
170 2500 1900
171 2500 1900
172 2900 1900
173 2500 1900
174 2600 1900
175 2500 1900
176 2600 1900
177 3400 1900
178 3600 1900
179 2800 1900
180 2700 1900
181 2500 1900
182 3000 1900
183 3500 1900
184 3100 1900
185 2800 1900
186 2700 1900
187 3200 1900
188 3300 1900
189 2700 1800
190 2500 1800
191 3300 1800
192 3300 1800
193 3400 1800
194 2700 1800
195 3400 1800
196 3500 1800
197 2900 1800
198 2800 1800
199 3400 1800
200 3300 1800
201 2500 1800
202 3100 1800
203 3200 1800
204 3300 1800
205 3300 1800
206 3000 1800
207 3200 1700
208 3000 1700
209 2600 1700
210 2500 1700
211 3000 1700
212 3100 1700
213 3100 1700
214 3600 1700
215 2800 1700
216 2600 1700
217 3100 1700
218 2900 1700
219 3100 1700
220 3200 1700
221 3200 1700
222 2700 1700
223 3000 1700
224 2400 1600
225 2500 1600
226 3600 1600
227 3100 1600
228 3100 1600
229 3100 1600
230 2800 1600
231 2900 1600
232 3300 1600
233 3100 1600
234 3000 1600
235 2400 1600
236 2800 1600
237 3300 1600
238 3100 1600
239 3400 1600
240 2600 1600
241 2900 1500
242 3000 1500
243 3100 1500
244 3100 1500
245 3100 1500
246 3200 1500
247 3200 1500
248 3200 1500
249 3200 1500
250 3300 1500
251 3300 1500
252 3300 1500
253 3300 1500
254 3400 1500
255 2700 1500
256 3100 1500
257 3100 1500
258 3100 1500
259 3200 1500
260 3200 1500
261 3200 1500
262 3200 1500
263 3300 1500
264 3300 1500
265 3300 1500
266 2400 1500
267 3000 1500
268 2700 1500
269 2400 1500
270 3400 1500
271 3000 1500
272 2800 1500
273 3000 1500
274 3400 1500
275 3400 1500
276 2800 1500
277 2600 1500
278 3000 1500
279 3100 1500
280 3100 1500
281 3200 1500
282 3200 1500
283 3200 1500
284 3200 1500
285 3300 1500
286 3300 1500
287 3300 1500
288 3400 1400
289 3100 1400
290 3100 1400
291 3100 1400
292 3200 1400
293 3200 1400
294 3200 1400
295 3200 1400
296 3300 1400
297 2900 1400
298 2700 1400
299 3000 1400
300 3300 1400
301 2400 1400
302 3400 1400
303 3300 1400
304 3000 1400
305 2600 1400
306 3100 1400
307 3400 1400
308 3300 1400
309 3100 1400
310 3000 1400
311 3300 1400
312 3200 1400
313 3200 1400
314 3100 1400
315 3400 1400
316 3400 1400
317 3000 1400
318 3000 1400
319 3300 1400
320 3400 1400
321 3100 1400
322 3200 1400
323 3000 1400
324 3300 1400
325 2900 1400
326 2900 1400
327 3100 1400
328 3400 1400
329 3100 1400
330 3000 1400
331 3300 1400
332 3400 1400
333 3100 1400
334 2800 1400
335 3600 1400
336 3300 1400
337 3000 1400
338 3100 1400
339 3400 1400
340 3300 1400
341 2900 1400
342 2800 1400
343 3000 1300
344 3300 1300
345 2900 1300
346 3100 1300
347 3400 1300
348 3500 1300
349 3000 1300
350 3000 1300
351 3300 1300
352 2900 1300
353 3100 1300
354 3400 1300
355 3300 1300
356 3200 1300
357 3000 1300
358 3000 1300
359 3200 1300
360 3100 1300
361 3400 1300
362 3600 1300
363 3300 1300
364 3000 1300
365 3100 1300
366 3400 1300
367 3300 1300
368 3000 1300
369 2800 1300
370 2900 1300
371 2900 1300
372 3500 1300
373 3400 1300
374 3100 1300
375 3200 1300
376 3300 1300
377 3000 1300
378 3100 1300
379 3400 1300
380 3300 1300
381 3000 1300
382 2800 1300
383 3100 1300
384 3400 1300
385 2600 1300
386 3100 1300
387 3300 1300
388 3300 1300
389 3000 1300
390 2900 1300
391 2800 1300
392 2600 1300
393 3100 1300
394 3400 1300
395 3500 1300
396 3000 1200
397 2900 1200
398 2800 1200
399 2500 1200
400 3100 1200
401 3400 1200
402 3300 1200
403 3300 1200
404 3200 1200
405 3200 1200
406 3200 1200
407 3200 1200
408 3100 1200
409 3000 1200
410 3300 1200
411 2900 1200
412 3100 1200
413 3100 1200
414 3200 1200
415 3200 1200
416 3200 1200
417 3200 1200
418 3300 1200
419 3300 1200
420 3300 1200
421 3400 1200
422 2600 1200
423 2600 1200
424 3000 1200
425 3000 1200
426 3400 1200
427 3500 1200
428 3500 1200
429 2700 1200
430 3400 1200
431 2900 1200
432 3000 1200
433 3100 1200
434 3100 1200
435 3100 1200
436 3200 1200
437 3200 1200
438 3200 1200
439 3200 1200
440 3300 1200
441 3300 1200
442 3300 1200
443 2900 1100
444 3100 1100
445 3100 1100
446 3100 1100
447 3100 1100
448 3200 1100
449 3200 1100
450 3200 1100
451 3200 1100
452 3300 1100
453 3300 1100
454 3300 1100
455 3300 1100
456 3400 1100
457 2700 1100
458 2900 1100
459 3100 1100
460 3000 1100
461 2900 1100
462 2800 1000
463 2900 1000
464 2800 1000
465 2900 1000
466 2900 1000
467 2900 830
468 3100 930
469 3100 950
470 3000 960
471 3100 970
472 3100 990
473 3200 980
474 3400 880
475 3500 920
476 3500 1000
477 3400 1000
478 3400 1000
479 3500 1000
480 3400 1100
481 3300 1100
482 3500 1100
483 3200 1100
484 3600 1100
485 3600 1100
486 3400 1100
487 3500 1100
488 3500 1200
489 3400 1200
490 3500 1200
491 3700 1300
492 3700 1300
493 3700 1000
PICKUP_AND_DELIVERY_SECTION
1 0 0 0 0 0 0
2 0 0 0 0 292 0
3 0 0 0 0 0 6
4 0 0 0 0 0 308
5 0 0 0 0 0 245
6 0 0 0 0 3 0
7 0 0 0 0 389 0
8 0 0 0 0 0 241
9 0 0 0 0 112 0
10 0 0 0 0 51 0
11 0 0 0 0 53 0
12 0 0 0 0 350 0
13 0 0 0 0 279 0
14 0 0 0 0 419 0
15 0 0 0 0 0 67
16 0 0 0 0 89 0
17 0 0 0 0 0 421
18 0 0 0 0 301 0
19 0 0 0 0 0 480
20 0 0 0 0 262 0
21 0 0 0 0 0 136
22 0 0 0 0 162 0
23 0 0 0 0 216 0
24 0 0 0 0 217 0
25 0 0 0 0 0 465
26 0 0 0 0 0 48
27 0 0 0 0 0 486
28 0 0 0 0 163 0
29 0 0 0 0 0 87
30 0 0 0 0 320 0
31 0 0 0 0 0 374
32 0 0 0 0 98 0
33 0 0 0 0 0 341
34 0 0 0 0 0 314
35 0 0 0 0 371 0
36 0 0 0 0 0 251
37 0 0 0 0 0 438
38 0 0 0 0 83 0
39 0 0 0 0 230 0
40 0 0 0 0 0 47
41 0 0 0 0 376 0
42 0 0 0 0 0 479
43 0 0 0 0 0 418
44 0 0 0 0 0 188
45 0 0 0 0 0 138
46 0 0 0 0 328 0
47 0 0 0 0 40 0
48 0 0 0 0 26 0
49 0 0 0 0 0 390
50 0 0 0 0 0 266
51 0 0 0 0 0 10
52 0 0 0 0 0 275
53 0 0 0 0 0 11
54 0 0 0 0 0 240
55 0 0 0 0 0 441
56 0 0 0 0 0 101
57 0 0 0 0 0 276
58 0 0 0 0 0 306
59 0 0 0 0 235 0
60 0 0 0 0 0 347
61 0 0 0 0 0 270
62 0 0 0 0 0 334
63 0 0 0 0 161 0
64 0 0 0 0 0 460
65 0 0 0 0 0 287
66 0 0 0 0 299 0
67 0 0 0 0 15 0
68 0 0 0 0 0 429
69 0 0 0 0 129 0
70 0 0 0 0 0 342
71 0 0 0 0 377 0
72 0 0 0 0 0 490
73 0 0 0 0 137 0
74 0 0 0 0 455 0
75 0 0 0 0 0 327
76 0 0 0 0 384 0
77 0 0 0 0 0 218
78 0 0 0 0 0 183
79 0 0 0 0 0 294
80 0 0 0 0 0 90
81 0 0 0 0 319 0
82 0 0 0 0 0 123
83 0 0 0 0 0 38
84 0 0 0 0 0 280
85 0 0 0 0 0 128
86 0 0 0 0 403 0
87 0 0 0 0 29 0
88 0 0 0 0 102 0
89 0 0 0 0 0 16
90 0 0 0 0 80 0
91 0 0 0 0 0 407
92 0 0 0 0 380 0
93 0 0 0 0 0 204
94 0 0 0 0 297 0
95 0 0 0 0 0 296
96 0 0 0 0 285 0
97 0 0 0 0 0 447
98 0 0 0 0 0 32
99 0 0 0 0 0 453
100 0 0 0 0 143 0
101 0 0 0 0 56 0
102 0 0 0 0 0 88
103 0 0 0 0 0 452
104 0 0 0 0 215 0
105 0 0 0 0 0 282
106 0 0 0 0 0 369
107 0 0 0 0 0 237
108 0 0 0 0 0 173
109 0 0 0 0 0 367
110 0 0 0 0 206 0
111 0 0 0 0 411 0
112 0 0 0 0 0 9
113 0 0 0 0 0 322
114 0 0 0 0 392 0
115 0 0 0 0 0 202
116 0 0 0 0 0 168
117 0 0 0 0 0 352
118 0 0 0 0 473 0
119 0 0 0 0 0 401
120 0 0 0 0 127 0
121 0 0 0 0 0 291
122 0 0 0 0 0 337
123 0 0 0 0 82 0
124 0 0 0 0 393 0
125 0 0 0 0 283 0
126 0 0 0 0 264 0
127 0 0 0 0 0 120
128 0 0 0 0 85 0
129 0 0 0 0 0 69
130 0 0 0 0 139 0
131 0 0 0 0 331 0
132 0 0 0 0 456 0
133 0 0 0 0 0 336
134 0 0 0 0 250 0
135 0 0 0 0 0 368
136 0 0 0 0 21 0
137 0 0 0 0 0 73
138 0 0 0 0 45 0
139 0 0 0 0 0 130
140 0 0 0 0 315 0
141 0 0 0 0 256 0
142 0 0 0 0 0 201
143 0 0 0 0 0 100
144 0 0 0 0 383 0
145 0 0 0 0 0 355
146 0 0 0 0 0 360
147 0 0 0 0 366 0
148 0 0 0 0 482 0
149 0 0 0 0 257 0
150 0 0 0 0 187 0
151 0 0 0 0 281 0
152 0 0 0 0 179 0
153 0 0 0 0 0 159
154 0 0 0 0 0 387
155 0 0 0 0 274 0
156 0 0 0 0 207 0
157 0 0 0 0 323 0
158 0 0 0 0 184 0
159 0 0 0 0 153 0
160 0 0 0 0 176 0
161 0 0 0 0 0 63
162 0 0 0 0 0 22
163 0 0 0 0 0 28
164 0 0 0 0 0 234
165 0 0 0 0 422 0
166 0 0 0 0 391 0
167 0 0 0 0 0 271
168 0 0 0 0 116 0
169 0 0 0 0 0 344
170 0 0 0 0 0 205
171 0 0 0 0 248 0
172 0 0 0 0 0 375
173 0 0 0 0 108 0
174 0 0 0 0 0 414
175 0 0 0 0 0 255
176 0 0 0 0 0 160
177 0 0 0 0 0 451
178 0 0 0 0 197 0
179 0 0 0 0 0 152
180 0 0 0 0 0 194
181 0 0 0 0 468 0
182 0 0 0 0 261 0
183 0 0 0 0 78 0
184 0 0 0 0 0 158
185 0 0 0 0 198 0
186 0 0 0 0 0 252
187 0 0 0 0 0 150
188 0 0 0 0 44 0
189 0 0 0 0 493 0
190 0 0 0 0 0 213
191 0 0 0 0 302 0
192 0 0 0 0 0 326
193 0 0 0 0 0 227
194 0 0 0 0 180 0
195 0 0 0 0 0 408
196 0 0 0 0 249 0
197 0 0 0 0 0 178
198 0 0 0 0 0 185
199 0 0 0 0 277 0
200 0 0 0 0 0 343
201 0 0 0 0 142 0
202 0 0 0 0 115 0
203 0 0 0 0 442 0
204 0 0 0 0 93 0
205 0 0 0 0 170 0
206 0 0 0 0 0 110
207 0 0 0 0 0 156
208 0 0 0 0 0 397
209 0 0 0 0 437 0
210 0 0 0 0 481 0
211 0 0 0 0 259 0
212 0 0 0 0 0 483
213 0 0 0 0 190 0
214 0 0 0 0 348 0
215 0 0 0 0 0 104
216 0 0 0 0 0 23
217 0 0 0 0 0 24
218 0 0 0 0 77 0
219 0 0 0 0 425 0
220 0 0 0 0 470 0
221 0 0 0 0 378 0
222 0 0 0 0 268 0
223 0 0 0 0 0 288
224 0 0 0 0 0 309
225 0 0 0 0 351 0
226 0 0 0 0 0 446
227 0 0 0 0 193 0
228 0 0 0 0 316 0
229 0 0 0 0 0 416
230 0 0 0 0 0 39
231 0 0 0 0 0 472
232 0 0 0 0 365 0
233 0 0 0 0 346 0
234 0 0 0 0 164 0
235 0 0 0 0 0 59
236 0 0 0 0 0 258
237 0 0 0 0 107 0
238 0 0 0 0 450 0
239 0 0 0 0 0 449
240 0 0 0 0 54 0
241 0 0 0 0 8 0
242 0 0 0 0 474 0
243 0 0 0 0 0 382
244 0 0 0 0 362 0
245 0 0 0 0 5 0
246 0 0 0 0 0 263
247 0 0 0 0 398 0
248 0 0 0 0 0 171
249 0 0 0 0 0 196
250 0 0 0 0 0 134
251 0 0 0 0 36 0
252 0 0 0 0 186 0
253 0 0 0 0 394 0
254 0 0 0 0 361 0
255 0 0 0 0 175 0
256 0 0 0 0 0 141
257 0 0 0 0 0 149
258 0 0 0 0 236 0
259 0 0 0 0 0 211
260 0 0 0 0 430 0
261 0 0 0 0 0 182
262 0 0 0 0 0 20
263 0 0 0 0 246 0
264 0 0 0 0 0 126
265 0 0 0 0 436 0
266 0 0 0 0 50 0
267 0 0 0 0 0 324
268 0 0 0 0 0 222
269 0 0 0 0 0 370
270 0 0 0 0 61 0
271 0 0 0 0 167 0
272 0 0 0 0 303 0
273 0 0 0 0 385 0
274 0 0 0 0 0 155
275 0 0 0 0 52 0
276 0 0 0 0 57 0
277 0 0 0 0 0 199
278 0 0 0 0 0 476
279 0 0 0 0 0 13
280 0 0 0 0 84 0
281 0 0 0 0 0 151
282 0 0 0 0 105 0
283 0 0 0 0 0 125
284 0 0 0 0 0 461
285 0 0 0 0 0 96
286 0 0 0 0 0 431
287 0 0 0 0 65 0
288 0 0 0 0 223 0
289 0 0 0 0 412 0
290 0 0 0 0 0 312
291 0 0 0 0 121 0
292 0 0 0 0 0 2
293 0 0 0 0 354 0
294 0 0 0 0 79 0
295 0 0 0 0 304 0
296 0 0 0 0 95 0
297 0 0 0 0 0 94
298 0 0 0 0 0 307
299 0 0 0 0 0 66
300 0 0 0 0 0 379
301 0 0 0 0 0 18
302 0 0 0 0 0 191
303 0 0 0 0 0 272
304 0 0 0 0 0 295
305 0 0 0 0 415 0
306 0 0 0 0 58 0
307 0 0 0 0 298 0
308 0 0 0 0 4 0
309 0 0 0 0 224 0
310 0 0 0 0 359 0
311 0 0 0 0 332 0
312 0 0 0 0 290 0
313 0 0 0 0 0 349
314 0 0 0 0 34 0
315 0 0 0 0 0 140
316 0 0 0 0 0 228
317 0 0 0 0 335 0
318 0 0 0 0 330 0
319 0 0 0 0 0 81
320 0 0 0 0 0 30
321 0 0 0 0 0 475
322 0 0 0 0 113 0
323 0 0 0 0 0 157
324 0 0 0 0 267 0
325 0 0 0 0 433 0
326 0 0 0 0 192 0
327 0 0 0 0 75 0
328 0 0 0 0 0 46
329 0 0 0 0 467 0
330 0 0 0 0 0 318
331 0 0 0 0 0 131
332 0 0 0 0 0 311
333 0 0 0 0 363 0
334 0 0 0 0 62 0
335 0 0 0 0 0 317
336 0 0 0 0 133 0
337 0 0 0 0 122 0
338 0 0 0 0 356 0
339 0 0 0 0 0 409
340 0 0 0 0 0 448
341 0 0 0 0 33 0
342 0 0 0 0 70 0
343 0 0 0 0 200 0
344 0 0 0 0 169 0
345 0 0 0 0 404 0
346 0 0 0 0 0 233
347 0 0 0 0 60 0
348 0 0 0 0 0 214
349 0 0 0 0 313 0
350 0 0 0 0 0 12
351 0 0 0 0 0 225
352 0 0 0 0 117 0
353 0 0 0 0 0 417
354 0 0 0 0 0 293
355 0 0 0 0 145 0
356 0 0 0 0 0 338
357 0 0 0 0 0 423
358 0 0 0 0 477 0
359 0 0 0 0 0 310
360 0 0 0 0 146 0
361 0 0 0 0 0 254
362 0 0 0 0 0 244
363 0 0 0 0 0 333
364 0 0 0 0 454 0
365 0 0 0 0 0 232
366 0 0 0 0 0 147
367 0 0 0 0 109 0
368 0 0 0 0 135 0
369 0 0 0 0 106 0
370 0 0 0 0 269 0
371 0 0 0 0 0 35
372 0 0 0 0 457 0
373 0 0 0 0 0 489
374 0 0 0 0 31 0
375 0 0 0 0 172 0
376 0 0 0 0 0 41
377 0 0 0 0 0 71
378 0 0 0 0 0 221
379 0 0 0 0 300 0
380 0 0 0 0 0 92
381 0 0 0 0 0 386
382 0 0 0 0 243 0
383 0 0 0 0 0 144
384 0 0 0 0 0 76
385 0 0 0 0 0 273
386 0 0 0 0 381 0
387 0 0 0 0 154 0
388 0 0 0 0 0 458
389 0 0 0 0 0 7
390 0 0 0 0 49 0
391 0 0 0 0 0 166
392 0 0 0 0 0 114
393 0 0 0 0 0 124
394 0 0 0 0 0 253
395 0 0 0 0 0 491
396 0 0 0 0 469 0
397 0 0 0 0 208 0
398 0 0 0 0 0 247
399 0 0 0 0 0 435
400 0 0 0 0 463 0
401 0 0 0 0 119 0
402 0 0 0 0 0 488
403 0 0 0 0 0 86
404 0 0 0 0 0 345
405 0 0 0 0 492 0
406 0 0 0 0 432 0
407 0 0 0 0 91 0
408 0 0 0 0 195 0
409 0 0 0 0 339 0
410 0 0 0 0 0 445
411 0 0 0 0 0 111
412 0 0 0 0 0 289
413 0 0 0 0 0 443
414 0 0 0 0 174 0
415 0 0 0 0 0 305
416 0 0 0 0 229 0
417 0 0 0 0 353 0
418 0 0 0 0 43 0
419 0 0 0 0 0 14
420 0 0 0 0 0 462
421 0 0 0 0 17 0
422 0 0 0 0 0 165
423 0 0 0 0 357 0
424 0 0 0 0 0 427
425 0 0 0 0 0 219
426 0 0 0 0 478 0
427 0 0 0 0 424 0
428 0 0 0 0 0 466
429 0 0 0 0 68 0
430 0 0 0 0 0 260
431 0 0 0 0 286 0
432 0 0 0 0 0 406
433 0 0 0 0 0 325
434 0 0 0 0 440 0
435 0 0 0 0 399 0
436 0 0 0 0 0 265
437 0 0 0 0 0 209
438 0 0 0 0 37 0
439 0 0 0 0 464 0
440 0 0 0 0 0 434
441 0 0 0 0 55 0
442 0 0 0 0 0 203
443 0 0 0 0 413 0
444 0 0 0 0 459 0
445 0 0 0 0 410 0
446 0 0 0 0 226 0
447 0 0 0 0 97 0
448 0 0 0 0 340 0
449 0 0 0 0 239 0
450 0 0 0 0 0 238
451 0 0 0 0 177 0
452 0 0 0 0 103 0
453 0 0 0 0 99 0
454 0 0 0 0 0 364
455 0 0 0 0 0 74
456 0 0 0 0 0 132
457 0 0 0 0 0 372
458 0 0 0 0 388 0
459 0 0 0 0 0 444
460 0 0 0 0 64 0
461 0 0 0 0 284 0
462 0 0 0 0 420 0
463 0 0 0 0 0 400
464 0 0 0 0 0 439
465 0 0 0 0 25 0
466 0 0 0 0 428 0
467 0 0 0 0 0 329
468 0 0 0 0 0 181
469 0 0 0 0 0 396
470 0 0 0 0 0 220
471 0 0 0 0 0 487
472 0 0 0 0 231 0
473 0 0 0 0 0 118
474 0 0 0 0 0 242
475 0 0 0 0 321 0
476 0 0 0 0 278 0
477 0 0 0 0 0 358
478 0 0 0 0 0 426
479 0 0 0 0 42 0
480 0 0 0 0 19 0
481 0 0 0 0 0 210
482 0 0 0 0 0 148
483 0 0 0 0 212 0
484 0 0 0 0 0 485
485 0 0 0 0 484 0
486 0 0 0 0 27 0
487 0 0 0 0 471 0
488 0 0 0 0 402 0
489 0 0 0 0 373 0
490 0 0 0 0 72 0
491 0 0 0 0 395 0
492 0 0 0 0 0 405
493 0 0 0 0 0 189
DEPOT_SECTION
1 
-1
EOF
